Reading model...
...model read.
creating competitive generators file...
...competitive generators recorded.
Loading data...
.. real-time data read.
Compiling instance...
...instance created.
Creating Offer Mitigation (model will solve as dispatch if TRUE)...
...storage offer mitigation file created
Converting model to MPEC...
...converted
NOTE: initial MIP solve with only storage competitive to get feasible solution
Solving...

Welcome to IBM(R) ILOG(R) CPLEX(R) Interactive Optimizer 12.10.0.0
  with Simplex, Mixed Integer & Barrier Optimizers
5725-A06 5725-A29 5724-Y48 5724-Y49 5724-Y54 5724-Y55 5655-Y21
Copyright IBM Corp. 1988, 2019.  All Rights Reserved.

Type 'help' for a list of available commands.
Type 'help' followed by a command name for more
information on commands.

CPLEX> Logfile 'cplex.log' closed.
Logfile 'C:\Users\wenmi\Desktop\competitiveMPEC\logs\tmpvkpcxefe.cplex.log' open.
CPLEX> New value for parallel optimization mode: -1
CPLEX> New value for mixed integer optimality gap tolerance: 0.05
CPLEX> New value for deterministic time limit in ticks: 100000
CPLEX> Problem 'C:\Users\wenmi\Desktop\competitiveMPEC\logs\tmptyaz8m8e.pyomo.lp' read.
Read time = 0.31 sec. (27.44 ticks)
CPLEX> Problem name         : C:\Users\wenmi\Desktop\competitiveMPEC\logs\tmptyaz8m8e.pyomo.lp
Objective sense      : Maximize
Variables            :  107779  [Nneg: 1,  Box: 44054,  Free: 8928,
                                 Binary: 54796]
Objective nonzeros   :   19106
Linear constraints   :  246995  [Less: 82866,  Greater: 118424,  Equal: 45705]
  Nonzeros           :  582557
  RHS nonzeros       :  136320

Variables            : Min LB: -5000.000        Max UB: 1000000.       
Objective nonzeros   : Min   : 0.02500000       Max   : 180.0000       
Linear constraints   :
  Nonzeros           : Min   : 0.02500000       Max   : 1000000.       
  RHS nonzeros       : Min   : 0.02500000       Max   : 1000000.       
CPLEX> Version identifier: 12.10.0.0 | 2019-11-26 | 843d4de2ae
CPXPARAM_Parallel                                -1
CPXPARAM_DetTimeLimit                            100000
CPXPARAM_MIP_Tolerances_MIPGap                   0.050000000000000003
Tried aggregator 3 times.
MIP Presolve eliminated 173228 rows and 34150 columns.
MIP Presolve added 7771 rows and 0 columns.
MIP Presolve modified 52170 coefficients.
Aggregator did 26069 substitutions.
Reduced MIP has 55469 rows, 47176 columns, and 151665 nonzeros.
Reduced MIP has 18691 binaries, 0 generals, 0 SOSs, and 0 indicators.
Presolve time = 0.34 sec. (333.77 ticks)
Probing fixed 696 vars, tightened 11587 bounds.
Probing time = 0.11 sec. (19.01 ticks)
Tried aggregator 2 times.
Detecting symmetries...
MIP Presolve eliminated 1576 rows and 1403 columns.
MIP Presolve modified 7094 coefficients.
Aggregator did 96 substitutions.
Reduced MIP has 53797 rows, 45677 columns, and 146787 nonzeros.
Reduced MIP has 17993 binaries, 0 generals, 0 SOSs, and 0 indicators.
Presolve time = 0.17 sec. (267.67 ticks)
Probing fixed 0 vars, tightened 570 bounds.
Probing time = 0.20 sec. (26.13 ticks)
Clique table members: 95702.
MIP emphasis: balance optimality and feasibility.
MIP search method: dynamic search.
Parallel mode: opportunistic, using up to 16 threads.
Root relaxation solution time = 0.94 sec. (2722.44 ticks)

        Nodes                                         Cuts/
   Node  Left     Objective  IInf  Best Integer    Best Bound    ItCnt     Gap

      0     0    -1005.1275   218                  -1005.1275    11795         
      0     0    -1005.1275   218                   Cuts: 121    11843         
      0     0    -1005.2339   218                    Cuts: 13    11859         
      0     0    -1005.2339   218                    Cuts: 13    11880         
*     0+    0                        -1175.5049    -1005.2339            14.48%
      0     0    -1005.2339   218    -1175.5049       Cuts: 4    11890   14.46%
*     0+    0                        -1042.7386    -1005.5695             3.56%

Cover cuts applied:  1
Implied bound cuts applied:  1
Flow cuts applied:  66
Lift and project cuts applied:  1
Gomory fractional cuts applied:  41

Root node processing (before b&c):
  Real time             =    3.64 sec. (5744.24 ticks)
Parallel b&c, 16 threads:
  Real time             =    0.00 sec. (0.00 ticks)
  Sync time (average)   =    0.00 sec.
  Wait time (average)   =    0.00 sec.
                          ------------
Total (root+branch&cut) =    3.64 sec. (5744.24 ticks)

Solution pool: 2 solutions saved.

MIP - Integer optimal, tolerance (0.05/1e-06):  Objective = -1.0427385871e+03
Current MIP best bound = -1.0055695305e+03 (gap = 37.1691, 3.56%)
Solution time =    3.64 sec.  Iterations = 11890  Nodes = 0 (1)
Deterministic time = 5744.55 ticks  (1578.17 ticks/sec)

CPLEX> Incumbent solution written to file 'C:\Users\wenmi\Desktop\competitiveMPEC\logs\tmpcs5cm3oz.cplex.sol'.
CPLEX> NOTE: no warmstart specified for MIP iteration, default behavior is true
NOTE: resolving with all competitive generators using storage-only solution to warmstart
Solving...

Welcome to IBM(R) ILOG(R) CPLEX(R) Interactive Optimizer 12.10.0.0
  with Simplex, Mixed Integer & Barrier Optimizers
5725-A06 5725-A29 5724-Y48 5724-Y49 5724-Y54 5724-Y55 5655-Y21
Copyright IBM Corp. 1988, 2019.  All Rights Reserved.

Type 'help' for a list of available commands.
Type 'help' followed by a command name for more
information on commands.

CPLEX> Logfile 'cplex.log' closed.
Logfile 'C:\Users\wenmi\Desktop\competitiveMPEC\logs\tmpuoy2o138.cplex.log' open.
CPLEX> New value for parallel optimization mode: -1
CPLEX> New value for mixed integer optimality gap tolerance: 0.05
CPLEX> New value for deterministic time limit in ticks: 100000
CPLEX> Problem 'C:\Users\wenmi\Desktop\competitiveMPEC\logs\tmphqerivr7.pyomo.lp' read.
Read time = 0.31 sec. (27.48 ticks)
CPLEX> MIP start file 'C:\Users\wenmi\Desktop\competitiveMPEC\logs\tmpsd7vdmzy.cplex.mst' read.
CPLEX> Problem name         : C:\Users\wenmi\Desktop\competitiveMPEC\logs\tmphqerivr7.pyomo.lp
Objective sense      : Maximize
Variables            :  109219  [Nneg: 1,  Box: 45494,  Free: 8928,
                                 Binary: 54796]
Objective nonzeros   :   20498
Linear constraints   :  246995  [Less: 82866,  Greater: 118424,  Equal: 45705]
  Nonzeros           :  582557
  RHS nonzeros       :  136320

Variables            : Min LB: -5000.000        Max UB: 1000000.       
Objective nonzeros   : Min   : 0.02500000       Max   : 180.0000       
Linear constraints   :
  Nonzeros           : Min   : 0.02500000       Max   : 1000000.       
  RHS nonzeros       : Min   : 0.02500000       Max   : 1000000.       
CPLEX> Version identifier: 12.10.0.0 | 2019-11-26 | 843d4de2ae
CPXPARAM_Parallel                                -1
CPXPARAM_DetTimeLimit                            100000
CPXPARAM_MIP_Tolerances_MIPGap                   0.050000000000000003
1 of 1 MIP starts provided solutions.
MIP start 'm1' defined initial solution with objective 2609.1991.
Tried aggregator 3 times.
MIP Presolve eliminated 173228 rows and 35590 columns.
MIP Presolve added 7771 rows and 0 columns.
MIP Presolve modified 52170 coefficients.
Aggregator did 26069 substitutions.
Reduced MIP has 55469 rows, 47176 columns, and 151665 nonzeros.
Reduced MIP has 18691 binaries, 0 generals, 0 SOSs, and 0 indicators.
Presolve time = 0.33 sec. (334.50 ticks)
Probing fixed 696 vars, tightened 11587 bounds.
Probing time = 0.09 sec. (19.01 ticks)
Tried aggregator 2 times.
Detecting symmetries...
MIP Presolve eliminated 1576 rows and 1403 columns.
MIP Presolve modified 7094 coefficients.
Aggregator did 96 substitutions.
Reduced MIP has 53797 rows, 45677 columns, and 146787 nonzeros.
Reduced MIP has 17993 binaries, 0 generals, 0 SOSs, and 0 indicators.
Presolve time = 0.17 sec. (267.69 ticks)
Probing fixed 0 vars, tightened 524 bounds.
Probing time = 0.19 sec. (23.56 ticks)
Clique table members: 96226.
MIP emphasis: balance optimality and feasibility.
MIP search method: dynamic search.
Parallel mode: opportunistic, using up to 16 threads.
Root relaxation solution time = 0.94 sec. (2835.56 ticks)

        Nodes                                         Cuts/
   Node  Left     Objective  IInf  Best Integer    Best Bound    ItCnt     Gap

*     0+    0                         2609.1991   1.35239e+07              --- 
      0     0     3360.4076   243     2609.1991     3360.4076    12491   28.79%
      0     0     3360.2133   243     2609.1991     Cuts: 186    12568   28.78%
*     0+    0                         3300.4104     3360.2133             1.81%

Implied bound cuts applied:  3
Flow cuts applied:  92
Mixed integer rounding cuts applied:  8
Gomory fractional cuts applied:  35

Root node processing (before b&c):
  Real time             =    3.00 sec. (5101.15 ticks)
Parallel b&c, 16 threads:
  Real time             =    0.00 sec. (0.00 ticks)
  Sync time (average)   =    0.00 sec.
  Wait time (average)   =    0.00 sec.
                          ------------
Total (root+branch&cut) =    3.00 sec. (5101.15 ticks)

Solution pool: 2 solutions saved.

MIP - Integer optimal, tolerance (0.05/1e-06):  Objective =  3.3004104297e+03
Current MIP best bound =  3.3602132574e+03 (gap = 59.8028, 1.81%)
Solution time =    3.02 sec.  Iterations = 12596  Nodes = 0 (1)
Deterministic time = 5101.46 ticks  (1691.46 ticks/sec)

CPLEX> Incumbent solution written to file 'C:\Users\wenmi\Desktop\competitiveMPEC\logs\tmpqwnpm6ii.cplex.sol'.
CPLEX> Exporting results... 
